language ESSENCE' 1.0

letting jobs = 102
letting horizon = 791
letting resourcesRenew = 2
letting resourcesNonrenew = 2
letting resourceLimits = [15, 17, 294, 246]
letting successors = [[2, 3, 4, 5, 6, 7, 8, 9, 10, 11, 12, 15, 16, 17, 18, 21, 23, 24, 28, 32], [56, 44, 40, 39, 38, 29, 27, 26, 25, 19, 13], [52, 47, 46, 45, 40, 39, 37, 36, 35, 33, 30, 29, 26, 25], [50, 47, 46, 40, 36, 34, 33, 31, 26, 25, 22], [50, 47, 45, 44, 38, 33, 26, 14], [60, 53, 52, 47, 44, 39, 37, 26, 20], [60, 54, 52, 49, 48, 47, 44, 40, 39, 38, 37, 34, 29, 25], [60, 56, 53, 49, 45, 44, 40, 38, 34, 33, 31, 29], [60, 53, 52, 50, 48, 45, 41, 40, 37, 29, 26], [55, 52, 49, 46, 45, 44, 40, 37, 36, 31, 25], [79, 59, 58, 55, 52, 51, 49, 48, 47, 46, 44, 40, 34, 33], [60, 56, 52, 51, 47, 46, 44, 43, 41, 40, 33, 31], [60, 55, 46, 45, 42, 41, 37, 36, 33, 31], [60, 52, 51, 46, 39, 36, 31, 25], [60, 55, 52, 51, 49, 48, 44, 40, 25], [59, 58, 57, 53, 47, 42, 40, 38, 36], [68, 59, 58, 49, 48, 45, 41, 29], [83, 79, 69, 66, 60, 59, 57, 56, 55, 54, 50, 49, 46, 43, 41], [79, 62, 60, 58, 52, 49, 48, 45, 43, 33], [71, 68, 64, 59, 48, 46, 41, 40, 29], [79, 69, 64, 62, 60, 59, 56, 54, 53, 52, 48, 47, 43, 42], [79, 66, 65, 58, 56, 55, 54, 52, 51, 45, 39], [83, 61, 58, 57, 51, 49, 42, 39, 36], [78, 62, 60, 58, 52, 51, 49, 31], [83, 79, 76, 71, 69, 68, 62, 58, 57, 43, 42, 41], [83, 82, 79, 71, 70, 69, 68, 62, 59, 57, 55, 54, 49], [83, 78, 71, 70, 69, 62, 61, 58, 57, 48, 47, 42], [83, 79, 76, 69, 68, 64, 62, 61, 57, 56, 43, 41], [83, 79, 70, 69, 65, 62, 57, 55, 43, 42], [79, 62, 56, 50, 49, 48], [79, 77, 70, 69, 68, 66, 64, 61, 59, 48], [99, 83, 82, 81, 79, 77, 76, 75, 71, 70, 65, 64, 63, 61, 57], [83, 81, 77, 71, 69, 68, 66, 63, 61, 57, 54], [83, 82, 81, 76, 71, 69, 63, 57, 41], [81, 76, 70, 66, 65, 61, 59, 57, 43], [75, 71, 70, 69, 66, 65, 48, 43], [101, 78, 73, 66, 59, 58, 51], [97, 96, 79, 70, 67, 65, 61, 51], [101, 100, 98, 97, 77, 76, 74, 73, 72, 69, 68, 63, 62], [101, 100, 97, 83, 77, 76, 74, 73, 67, 66, 65, 62], [101, 100, 99, 97, 96, 91, 78, 77, 75, 74, 73, 70, 67, 65], [100, 97, 91, 90, 82, 81, 77, 75, 74, 73, 66, 63], [101, 99, 98, 97, 95, 92, 91, 90, 82, 78, 77, 74, 73, 72, 63], [101, 100, 98, 96, 83, 81, 77, 76, 73, 72, 68, 67], [96, 93, 82, 81, 75, 71, 69, 64, 61], [97, 96, 82, 76, 75, 74, 67, 61], [96, 91, 81, 77, 74, 68, 67, 66], [101, 99, 98, 97, 96, 82, 81, 76, 74, 72, 67], [100, 97, 96, 81, 76, 74, 73, 67, 65], [98, 93, 89, 81, 78, 74, 73, 58], [100, 94, 93, 81, 77, 76, 75, 74, 72, 71, 69], [99, 96, 95, 92, 88, 83, 82, 76, 72, 70, 67], [98, 97, 75, 73, 71, 67, 65], [101, 99, 98, 97, 95, 94, 92, 88, 78, 76, 67], [97, 96, 95, 93, 87, 77, 76, 61], [100, 97, 77, 73, 71, 63], [100, 97, 95, 93, 91, 90, 89, 87, 84, 80, 74, 73], [97, 96, 92, 87, 64], [91, 90, 72, 63], [99, 98, 96, 95, 89, 88, 87, 86, 85, 84, 81], [101, 92, 91, 90, 89, 86, 73, 72], [99, 96, 93, 88, 87, 86, 81, 75], [96, 88, 67], [100, 95, 94, 91, 90, 86, 84, 80], [95, 93, 92, 89, 87, 86, 72], [99, 98, 88, 87, 86, 80, 72], [93, 89, 87, 86, 84, 80], [94, 93, 92, 90, 75], [99, 92, 89, 87, 86, 84], [98, 90, 89, 87, 85, 84], [91, 90, 89, 88, 84], [85, 84], [94, 88], [88, 86], [95, 84], [91, 90], [88, 85], [87, 85], [80], [85], [92], [94], [86], [102], [102], [102], [102], [102], [102], [102], [102], [102], [102], [102], [102], [102], [102], [102], [102], [102], [102], []]
letting durations = [[0], [1, 3, 7], [7, 8, 9], [1, 8, 10], [4, 9, 10], [4, 5, 7], [1, 2, 6], [1, 10, 10], [5, 6, 7], [1, 4, 8], [1, 5, 10], [3, 4, 7], [1, 5, 8], [2, 6, 10], [3, 3, 6], [1, 1, 9], [1, 8, 8], [6, 7, 7], [2, 6, 7], [2, 8, 9], [7, 9, 10], [2, 4, 9], [1, 2, 4], [4, 7, 8], [3, 7, 8], [2, 3, 7], [5, 7, 9], [4, 8, 10], [1, 10, 10], [2, 7, 9], [3, 5, 7], [3, 5, 10], [1, 1, 4], [1, 1, 7], [2, 3, 9], [3, 4, 6], [4, 6, 7], [2, 3, 8], [3, 3, 3], [1, 3, 5], [1, 3, 8], [7, 10, 10], [4, 7, 10], [1, 6, 7], [6, 7, 10], [4, 9, 10], [1, 3, 10], [3, 6, 9], [1, 4, 5], [3, 7, 7], [5, 6, 6], [4, 5, 6], [3, 6, 9], [5, 6, 7], [6, 7, 8], [1, 4, 8], [7, 7, 8], [4, 7, 7], [1, 2, 8], [3, 7, 8], [1, 6, 9], [6, 7, 9], [2, 2, 4], [1, 3, 8], [5, 8, 10], [2, 5, 10], [4, 6, 9], [1, 2, 9], [1, 8, 10], [5, 6, 9], [2, 4, 6], [5, 5, 9], [3, 5, 7], [1, 2, 6], [2, 5, 8], [6, 9, 9], [1, 2, 6], [2, 8, 9], [7, 7, 9], [1, 2, 5], [6, 8, 9], [3, 5, 9], [5, 6, 7], [2, 3, 4], [3, 4, 9], [5, 8, 9], [1, 6, 7], [1, 7, 8], [3, 9, 9], [1, 6, 9], [3, 7, 8], [6, 7, 8], [3, 5, 7], [6, 8, 10], [5, 6, 7], [6, 7, 8], [1, 2, 5], [7, 9, 10], [5, 6, 9], [7, 7, 8], [1, 2, 4], [0]]
letting resourceUsage = [[[0, 0, 0, 0]], [[2, 0, 2, 0], [2, 0, 0, 7], [2, 0, 1, 0]], [[0, 4, 0, 9], [3, 0, 0, 7], [0, 1, 3, 0]], [[0, 5, 7, 0], [0, 4, 0, 7], [2, 0, 2, 0]], [[5, 0, 0, 7], [4, 0, 9, 0], [4, 0, 0, 6]], [[0, 3, 5, 0], [3, 0, 4, 0], [0, 1, 0, 4]], [[0, 2, 8, 0], [0, 2, 6, 0], [1, 0, 0, 3]], [[0, 4, 0, 8], [0, 3, 0, 8], [0, 2, 4, 0]], [[0, 5, 9, 0], [0, 5, 8, 0], [1, 0, 0, 2]], [[0, 4, 0, 8], [1, 0, 5, 0], [0, 3, 0, 3]], [[0, 3, 9, 0], [0, 3, 0, 4], [0, 3, 8, 0]], [[4, 0, 3, 0], [0, 3, 0, 3], [4, 0, 0, 3]], [[0, 4, 6, 0], [2, 0, 0, 3], [0, 2, 4, 0]], [[5, 0, 4, 0], [5, 0, 3, 0], [0, 2, 0, 4]], [[5, 0, 0, 8], [5, 0, 9, 0], [5, 0, 0, 6]], [[2, 0, 10, 0], [0, 1, 0, 3], [0, 1, 9, 0]], [[0, 3, 0, 6], [3, 0, 0, 4], [0, 2, 0, 2]], [[3, 0, 0, 9], [0, 4, 0, 9], [3, 0, 0, 8]], [[5, 0, 6, 0], [0, 4, 0, 4], [0, 3, 0, 3]], [[0, 3, 9, 0], [3, 0, 0, 4], [2, 0, 2, 0]], [[0, 4, 9, 0], [1, 0, 9, 0], [1, 0, 8, 0]], [[0, 5, 0, 7], [0, 5, 0, 4], [0, 5, 0, 3]], [[0, 2, 0, 8], [0, 1, 6, 0], [3, 0, 2, 0]], [[0, 2, 5, 0], [0, 2, 4, 0], [0, 2, 0, 1]], [[5, 0, 9, 0], [0, 4, 0, 4], [3, 0, 0, 3]], [[0, 4, 0, 1], [0, 2, 7, 0], [0, 2, 0, 1]], [[3, 0, 0, 10], [3, 0, 0, 7], [3, 0, 0, 6]], [[3, 0, 0, 4], [2, 0, 3, 0], [2, 0, 2, 0]], [[0, 4, 9, 0], [2, 0, 8, 0], [0, 3, 0, 3]], [[4, 0, 10, 0], [3, 0, 9, 0], [0, 3, 0, 8]], [[0, 5, 0, 8], [0, 4, 6, 0], [1, 0, 0, 4]], [[0, 4, 4, 0], [0, 2, 4, 0], [0, 1, 0, 4]], [[4, 0, 4, 0], [3, 0, 0, 5], [0, 3, 0, 4]], [[5, 0, 7, 0], [0, 5, 0, 5], [4, 0, 6, 0]], [[1, 0, 0, 7], [1, 0, 8, 0], [1, 0, 0, 6]], [[0, 4, 0, 6], [4, 0, 0, 6], [0, 4, 6, 0]], [[3, 0, 8, 0], [0, 3, 0, 10], [0, 3, 8, 0]], [[0, 4, 9, 0], [3, 0, 8, 0], [2, 0, 7, 0]], [[0, 4, 1, 0], [3, 0, 1, 0], [0, 4, 0, 8]], [[0, 4, 0, 5], [3, 0, 0, 4], [3, 0, 0, 3]], [[3, 0, 0, 5], [0, 3, 2, 0], [0, 3, 0, 4]], [[0, 5, 0, 4], [0, 4, 0, 4], [4, 0, 6, 0]], [[2, 0, 5, 0], [2, 0, 0, 4], [2, 0, 0, 3]], [[5, 0, 0, 7], [0, 1, 7, 0], [0, 1, 6, 0]], [[3, 0, 9, 0], [0, 1, 0, 1], [1, 0, 6, 0]], [[0, 3, 5, 0], [0, 3, 0, 8], [0, 1, 0, 8]], [[0, 2, 0, 3], [0, 1, 0, 2], [0, 1, 0, 1]], [[3, 0, 5, 0], [2, 0, 3, 0], [0, 1, 3, 0]], [[0, 2, 8, 0], [4, 0, 6, 0], [4, 0, 0, 1]], [[0, 3, 0, 7], [0, 3, 2, 0], [0, 2, 0, 3]], [[4, 0, 7, 0], [0, 2, 0, 4], [0, 2, 2, 0]], [[1, 0, 0, 7], [0, 3, 3, 0], [0, 1, 3, 0]], [[0, 2, 3, 0], [0, 2, 2, 0], [1, 0, 3, 0]], [[0, 2, 4, 0], [0, 2, 0, 3], [0, 2, 0, 2]], [[0, 2, 0, 8], [0, 1, 0, 6], [0, 1, 0, 4]], [[2, 0, 0, 5], [0, 3, 6, 0], [0, 3, 4, 0]], [[5, 0, 0, 9], [0, 3, 3, 0], [3, 0, 2, 0]], [[0, 4, 7, 0], [2, 0, 7, 0], [2, 0, 0, 2]], [[3, 0, 8, 0], [3, 0, 7, 0], [0, 4, 4, 0]], [[0, 4, 0, 8], [2, 0, 8, 0], [2, 0, 7, 0]], [[0, 4, 0, 6], [2, 0, 8, 0], [1, 0, 0, 2]], [[2, 0, 5, 0], [1, 0, 3, 0], [1, 0, 2, 0]], [[4, 0, 0, 4], [0, 2, 0, 3], [0, 2, 6, 0]], [[0, 2, 0, 2], [3, 0, 0, 1], [0, 2, 0, 1]], [[0, 2, 6, 0], [3, 0, 0, 3], [3, 0, 4, 0]], [[5, 0, 9, 0], [4, 0, 8, 0], [0, 1, 7, 0]], [[0, 5, 0, 2], [1, 0, 3, 0], [0, 2, 2, 0]], [[1, 0, 2, 0], [0, 2, 0, 6], [1, 0, 1, 0]], [[2, 0, 0, 5], [0, 5, 5, 0], [2, 0, 0, 3]], [[0, 3, 5, 0], [0, 2, 2, 0], [0, 1, 0, 3]], [[3, 0, 4, 0], [2, 0, 3, 0], [2, 0, 2, 0]], [[4, 0, 6, 0], [0, 4, 0, 2], [0, 3, 0, 2]], [[0, 2, 7, 0], [2, 0, 0, 2], [0, 1, 4, 0]], [[3, 0, 0, 3], [0, 4, 0, 2], [0, 4, 0, 1]], [[3, 0, 10, 0], [0, 2, 0, 6], [2, 0, 6, 0]], [[5, 0, 0, 1], [4, 0, 6, 0], [0, 2, 5, 0]], [[4, 0, 5, 0], [2, 0, 3, 0], [2, 0, 2, 0]], [[0, 1, 0, 8], [3, 0, 0, 5], [3, 0, 0, 4]], [[0, 2, 0, 8], [0, 2, 2, 0], [0, 1, 2, 0]], [[0, 4, 0, 5], [0, 2, 0, 5], [0, 2, 0, 4]], [[0, 5, 9, 0], [3, 0, 8, 0], [2, 0, 0, 1]], [[4, 0, 4, 0], [3, 0, 4, 0], [3, 0, 3, 0]], [[3, 0, 10, 0], [3, 0, 8, 0], [0, 3, 8, 0]], [[3, 0, 5, 0], [2, 0, 5, 0], [2, 0, 4, 0]], [[0, 4, 0, 7], [0, 3, 0, 6], [0, 2, 9, 0]], [[3, 0, 0, 5], [0, 2, 6, 0], [1, 0, 0, 4]], [[0, 3, 6, 0], [2, 0, 0, 3], [1, 0, 0, 2]], [[3, 0, 3, 0], [3, 0, 2, 0], [0, 2, 0, 5]], [[2, 0, 5, 0], [2, 0, 4, 0], [0, 4, 0, 1]], [[5, 0, 7, 0], [0, 3, 7, 0], [0, 3, 5, 0]], [[0, 2, 8, 0], [0, 2, 7, 0], [0, 2, 0, 6]], [[2, 0, 5, 0], [0, 2, 2, 0], [2, 0, 0, 4]], [[4, 0, 0, 10], [3, 0, 0, 9], [0, 3, 0, 7]], [[0, 3, 8, 0], [4, 0, 8, 0], [0, 2, 8, 0]], [[0, 3, 9, 0], [2, 0, 0, 8], [2, 0, 9, 0]], [[2, 0, 0, 6], [2, 0, 0, 5], [2, 0, 3, 0]], [[0, 4, 3, 0], [0, 3, 3, 0], [0, 3, 1, 0]], [[3, 0, 9, 0], [0, 2, 0, 7], [0, 2, 7, 0]], [[5, 0, 0, 8], [4, 0, 0, 7], [0, 2, 0, 4]], [[4, 0, 0, 7], [0, 3, 0, 3], [0, 3, 4, 0]], [[0, 2, 0, 4], [0, 2, 0, 2], [4, 0, 0, 2]], [[0, 0, 0, 0]]]
